(set-logic QF_S)
(set-option :strings-exp true)
(set-option :produce-models true)
(declare-fun literal_2 () String)
(assert (= literal_2 "\x2f\x6d\x6f\x64\x2f\x72\x65\x73\x6f\x75\x72\x63\x65\x2f\x74\x79\x70\x65\x2f\x2f\x72\x65\x73\x6f\x75\x72\x63\x65\x2e\x63\x6c\x61\x73\x73\x2e\x70\x68\x70"))
(assert (str.in.re literal_2 (re.++ (re.* re.allchar) (re.++ (str.to.re "\x2f\x65\x76\x69\x6c") (re.* re.allchar)))))
(check-sat)
(get-model)
